NAME : ManP-100_1.14306904.tour
COMMENT : Length = 14306904
COMMENT : Found by LKH [Keld Helsgaun] Thu Nov 29 13:06:56 2018
TYPE : TOUR
DIMENSION : 105
TOUR_SECTION
1
19
47
70
55
57
71
38
53
32
75
49
92
41
66
78
8
99
96
13
59
3
24
7
95
93
28
98
105
104
102
85
64
20
17
46
35
62
83
88
11
51
10
15
29
25
40
86
37
80
54
33
9
12
4
67
84
22
61
97
23
36
14
101
82
65
100
69
79
34
27
21
91
87
94
48
5
103
68
81
60
77
44
52
76
18
63
6
39
43
2
74
50
72
26
45
16
89
30
56
90
31
42
73
58
-1
EOF
